PROBLEM NAME: eil51_n6
KNAPSACK DATA TYPE: uncorrelated, similar weights
DIMENSION: 6
NUMBER OF ITEMS: 25
CAPACITY OF KNAPSACK: 2273625
MIN SPEED: 0.1
MAX SPEED: 1
RENTING RATIO: 27.67
EDGE_WEIGHT_TYPE: CEIL_2D
NODE_COORD_SECTION	(INDEX, X, Y):
1	31	62
2	52	41
3	27	23
4	57	58
5	62	42
6	43	67
ITEMS SECTION	(INDEX, PROFIT, WEIGHT, ASSIGNED NODE NUMBER):
1	970	100066	6
2	949	100000	6
3	930	100080	6
4	925	100033	6
5	909	100015	6
6	906	100007	4
7	902	100097	4
8	893	100005	4
9	851	100090	4
10	811	100011	4
11	776	100002	5
12	724	100026	5
13	700	100082	5
14	581	100042	5
15	532	100090	5
16	512	100013	2
17	493	100030	2
18	428	100017	2
19	416	100009	2
20	343	100031	2
21	340	100047	3
22	300	100071	3
23	149	100017	3
24	148	100037	3
25	41	100070	3
